proyfinal/src/viki/013/experimentInOfficeAgust.take6.output/ca40cda4-d1e8-48c8-8106-570b59f59eb1.als.dat
{'cnf.clauses': '118081',
 'cnf.totvars': '69608',
 'conflict literals': '126',
 'conflicts': '45',
 'decisions': '14598',
 'memused.mb': '14.51',
 'outcome': 'UNSAT',
 'propagations': '53697',
 'restarts': '1',
 'solver.msecs': 27,
 'task.msecs': 128}
