proyfinal/src/viki/013/experimentInOfficeAgust.take6.output/ca40cda4-d1e8-48c8-8106-570b59f59eb1.als.out
Reading from standard input... Use '--help' for help.
============================[ Problem Statistics ]=============================
|                                                                             |
|  Number of variables:         69608                                         |
|  Number of clauses:          118081                                         |
|  Parse time:                   0.02 s                                       |
|                                                                             |
============================[ Search Statistics ]==============================
| Conflicts |          ORIGINAL         |          LEARNT          | Progress |
|           |    Vars  Clauses Literals |    Limit  Clauses Lit/Cl |          |
===============================================================================
===============================================================================
restarts              : 1
conflicts             : 45             (1612 /sec)
decisions             : 14598          (0.00 % random) (523038 /sec)
propagations          : 53697          (1923934 /sec)
conflict literals     : 126            (1.56 % deleted)
Memory used           : 14.51 MB
CPU time              : 0.02791 s

UNSATISFIABLE
